c number of variables / number of clauses
p cnf 20 24
-3 -16 18 0
5 -9 12 0
-2 -13 20 0
-5 -9 12 0
-4 6 19 0
-5 9 12 0
-1 4 -11 0
-2 13 -19 0
6 9 17 0
9 16 -17 0
-5 -9 -12 0
4 6 11 0
7 -15 -17 0
-6 13 19 0
5 -9 -12 0
1 12 14 0
2 3 20 0
-5 -7 10 0
-5 9 -12 0
3 18 -20 0
-10 -16 -18 0
1 -11 -14 0
-7 8 -15 0
-8 -10 16 0